Name:		mgval_0.50_4B
Optimal value:	-1
#Vehicles:	4
Capacity:	170
Depot Node:	1
#Nodes:		41
#Edges:		19
#Arcs:		83
#Required N:	32
#Required E:	9
#Required A:	41

ReN.	DEMAND	S. COST
N2	21	21
N3	16	16
N4	3	3
N5	13	13
N7	29	29
N9	2	2
N10	6	6
N11	8	8
N12	4	4
N14	10	10
N15	12	12
N16	27	27
N17	5	5
N20	6	6
N21	4	4
N23	11	11
N24	26	26
N25	21	21
N26	32	32
N27	4	4
N28	19	19
N29	6	6
N30	9	9
N31	10	10
N32	7	7
N33	5	5
N34	6	6
N35	6	6
N37	21	21
N39	12	12
N40	2	2
N41	2	2

ReE.	FROM N.	TO N.	T. COST	DEMAND	S. COST
E11	4	5	1	2	2
E12	27	32	3	8	8
E13	13	14	8	16	16
E14	19	20	3	4	4
E15	31	32	5	9	9
E16	14	15	3	8	8
E17	38	39	9	10	10
E18	33	37	2	4	4
E19	18	22	6	14	14

EDGE	FROM N.	TO N.	T. COST
NrE1	5	6	6
NrE2	3	9	1
NrE3	25	31	7
NrE4	3	4	7
NrE5	26	27	7
NrE6	24	25	4
NrE7	16	17	9
NrE8	29	30	3
NrE9	23	24	3
NrE10	2	8	10

ReA.	FROM N.	TO N.	T. COST	DEMAND	S. COST
A43	17	20	2	2	2
A44	2	1	1	1	1
A45	32	36	10	6	6
A46	38	34	7	6	6
A47	22	21	4	5	5
A48	15	10	1	2	2
A49	6	12	3	4	4
A50	31	35	4	3	3
A51	23	14	3	4	4
A52	39	40	2	1	1
A53	36	40	4	7	7
A54	21	27	1	3	3
A55	36	32	10	7	7
A56	10	4	3	4	4
A57	21	20	5	10	10
A58	13	23	7	7	7
A59	34	35	2	2	2
A60	40	39	2	2	2
A61	3	2	1	1	1
A62	11	10	4	4	4
A63	18	17	4	4	4
A64	5	11	4	4	4
A65	8	9	2	1	1
A66	27	20	5	4	4
A67	8	7	2	3	3
A68	10	15	1	1	1
A69	35	39	10	7	7
A70	14	23	3	3	3
A71	11	17	2	2	2
A72	30	24	8	6	6
A73	12	11	5	5	5
A74	23	29	5	14	14
A75	36	39	3	4	4
A76	34	29	14	17	17
A77	10	11	4	3	3
A78	16	19	1	2	2
A79	16	15	3	3	3
A80	25	26	6	4	4
A81	36	35	8	12	12
A82	22	28	5	6	6
A83	2	3	1	1	1

ARC	FROM N.	TO N.	T. COST
NrA1	39	36	3
NrA2	1	7	5
NrA3	11	5	4
NrA4	10	9	3
NrA5	20	17	2
NrA6	14	9	5
NrA7	20	27	5
NrA8	25	15	9
NrA9	24	14	4
NrA10	4	10	3
NrA11	24	30	8
NrA12	12	6	3
NrA13	27	33	5
NrA14	32	26	7
NrA15	15	25	9
NrA16	34	38	7
NrA17	37	36	8
NrA18	35	31	4
NrA19	40	41	4
NrA20	11	12	5
NrA21	28	22	5
NrA22	35	34	2
NrA23	21	22	4
NrA24	15	16	3
NrA25	9	8	2
NrA26	26	25	6
NrA27	23	13	7
NrA28	37	41	5
NrA29	1	2	1
NrA30	39	35	10
NrA31	26	32	7
NrA32	26	19	8
NrA33	16	11	6
NrA34	41	40	4
NrA35	30	31	12
NrA36	7	13	7
NrA37	7	1	5
NrA38	17	18	4
NrA39	28	27	7
NrA40	31	30	12
NrA41	17	11	2
NrA42	33	27	5
